p cnf 9 30
-4 -3 -5 0
-4 9 -3 0
-7 -6 5 0
-2 -8 -3 0
8 -1 9 0
8 2 -5 0
-8 3 -9 0
6 -9 -5 0
-7 -3 -2 0
-9 -2 4 0
-9 -8 4 0
-9 7 -3 0
3 -8 -4 0
-7 6 -1 0
-7 -4 2 0
-1 -4 6 0
-3 -4 -6 0
7 -1 -2 0
-1 4 -6 0
-9 -8 5 0
-2 7 6 0
-1 6 -7 0
-8 -7 6 0
-2 -9 -3 0
7 3 2 0
5 2 -9 0
1 -5 6 0
5 3 -2 0
-1 2 9 0
5 1 6 0
